
GUB cover cuts applied:  2
Clique cuts applied:  2
Cover cuts applied:  3
Implied bound cuts applied:  69
Mixed integer rounding cuts applied:  3

Root node processing (before b&c):
  Real time             =    0.08 sec. (54.24 ticks)
Parallel b&c, 4 threads:
  Real time             =    0.05 sec. (24.34 ticks)
  Sync time (average)   =    0.02 sec.
  Wait time (average)   =    0.00 sec.
                          ------------
Total (root+branch&cut) =    0.13 sec. (78.58 ticks)
Version identifier: 12.10.0.0 | 2019-11-26 | 843d4de
CPXPARAM_MIP_Interval                            10
CPXPARAM_MIP_Tolerances_AbsMIPGap                0.98999999999999999
Tried aggregator 2 times.
MIP Presolve eliminated 7146 rows and 3464 columns.
MIP Presolve added 4 rows and 0 columns.
MIP Presolve modified 200 coefficients.
Aggregator did 11 substitutions.
Reduced MIP has 3505 rows, 304 columns, and 7486 nonzeros.
Reduced MIP has 245 binaries, 59 generals, 0 SOSs, and 0 indicators.
Presolve time = 0.01 sec. (11.02 ticks)
Probing fixed 0 vars, tightened 6 bounds.
Probing time = 0.00 sec. (1.36 ticks)
Cover probing fixed 0 vars, tightened 48 bounds.
Tried aggregator 1 time.
Detecting symmetries...
MIP Presolve eliminated 2944 rows and 0 columns.
MIP Presolve modified 21 coefficients.
Reduced MIP has 561 rows, 304 columns, and 1598 nonzeros.
Reduced MIP has 245 binaries, 59 generals, 0 SOSs, and 0 indicators.
Presolve time = 0.00 sec. (2.59 ticks)
Probing fixed 0 vars, tightened 6 bounds.
Probing time = 0.00 sec. (0.32 ticks)
Cover probing fixed 0 vars, tightened 45 bounds.
Clique table members: 373.
MIP emphasis: balance optimality and feasibility.
MIP search method: dynamic search.
Parallel mode: deterministic, using up to 4 threads.
Root relaxation solution time = 0.01 sec. (2.09 ticks)

        Nodes                                         Cuts/
   Node  Left     Objective  IInf  Best Integer    Best Bound    ItCnt     Gap

      0     0       39.3333    89                     39.3333      230         
      0     0       39.3333    89                    Cuts: 46      324         
      0     0       39.3333    89                    Cuts: 48      409         
      0     0       39.3333    89                    Cuts: 78      557         
      0     0       39.3333    89                    Cuts: 41      725         
      0     0       39.3333    89                    Cuts: 38      860         
Detecting symmetries...
      0     0       39.3249    89                     Cuts: 9      905         
      0     0       39.3103    89                   Cuts: 109      975         
      0     0       39.2856    89                    Cuts: 32     1027         
*     0+    0                           38.0000       39.2856             3.38%
      0     0       39.2807    89       38.0000      Cuts: 64     1096    3.07%
      0     0       39.2712    89       38.0000      Cuts: 70     1142    3.07%
      0     0        cutoff             38.0000       38.0000     1142    0.00%
Elapsed time = 0.16 sec. (118.20 ticks, tree = 0.01 MB, solutions = 1)
the number of Nodes = 0
